/* Objective function */

min:37.7*x11 + 32.9*x12 + 33.8*x13 + 37.0*x14 + 35.4*x15
+ 43.4*x21 + 33.1*x22 + 42.2*x23 + 34.7*x24 + 41.8*x25
+ 33.3*x31 + 28.5*x32 + 38.9*x33 + 30.4*x34 + 33.6*x35
+ 29.2*x41 + 26.4*x42 + 29.6*x43 + 28.5*x44 + 31.1*x45;

x11 + x12 + x13 + x14 + x15 = 1;
x21 + x22 + x23 + x24 + x25 = 1;
x31 + x32 + x33 + x34 + x35 = 1;
x41 + x42 + x43 + x44 + x45 = 1;

x11 + x21 + x31 + x41 <= 1;
x12 + x22 + x32 + x42 <= 1;
x13 + x23 + x33 + x43 <= 1;
x14 + x24 + x34 + x44 <= 1;
x15 + x25 + x35 + x45 <= 1;

/* Binary decision variables */
bin x11, x12, x13, x14, x15,
    x21, x22, x23, x24, x25,
    x31, x32, x33, x34, x35,
    x41, x42, x43, x44, x45;
